20190630 350200.00 350200.00
20170630 350183.98 350183.98
20170420 350183.98 350183.98
20170329 350183.98 350183.98
20160630 279556.96 279556.96
20160325 279556.96 279556.96
20160111 279556.96 240000.00
